33D32945 STP File, STP Format Version 1.0

SECTION Comments
Name  	"W2"
Creator	"Daisy Jørgensen"
Problem	"3-dimensional Geometric Steiner Minimum Tree"
Remark	"Converted automatically."
END

SECTION Graph
Nodes 506
END

SECTION Coordinates
DDD 1 -0.13 -28.17 9.87
DDD 2 4.12 -28.80 5.74
DDD 3 2.88 -28.02 9.57
DDD 4 1.73 -29.76 7.62
DDD 5 3.29 -29.85 8.07
DDD 6 3.25 -27.38 7.33
DDD 7 2.07 -27.95 6.36
DDD 8 5.83 -27.29 5.28
DDD 9 5.18 -27.00 6.75
DDD 10 6.22 -28.24 6.55
DDD 11 2.31 -29.34 11.20
DDD 12 1.08 -30.00 10.36
DDD 13 2.61 -30.46 10.06
DDD 14 0.48 -25.15 6.05
DDD 15 2.38 -24.44 10.06
DDD 16 1.69 -26.60 7.83
DDD 17 -1.12 -26.46 8.45
DDD 18 -1.06 -24.20 8.92
DDD 19 0.54 -24.14 8.62
DDD 20 0.00 -25.93 10.64
DDD 21 -0.60 -24.46 11.01
DDD 22 1.60 -23.19 12.43
DDD 23 1.75 -24.87 12.85
DDD 24 -4.33 -25.72 5.05
DDD 25 -2.42 -26.19 6.72
DDD 26 -1.36 -24.79 4.44
DDD 27 -0.74 -26.87 3.80
DDD 28 -2.11 -26.56 2.98
DDD 29 -0.94 -28.31 5.91
DDD 30 -3.91 -28.07 3.06
DDD 31 -1.90 -30.32 6.76
DDD 32 -4.88 -30.08 3.90
DDD 33 -3.90 -32.25 5.22
DDD 34 -4.62 -23.12 1.36
DDD 35 -2.79 -23.38 3.60
DDD 36 -5.57 -23.77 4.32
DDD 37 -5.78 -21.44 3.76
DDD 38 -4.16 -21.39 3.62
DDD 39 -3.93 -21.90 5.90
DDD 40 -5.55 -22.03 6.05
DDD 41 -5.84 -19.76 5.71
DDD 42 -4.28 -19.58 5.25
DDD 43 -5.09 -20.29 7.91
DDD 44 -4.65 -18.78 7.47
DDD 45 -2.65 -19.35 8.07
DDD 46 -3.04 -20.93 8.13
DDD 47 -2.61 -20.26 6.71
DDD 48 -8.44 -22.44 1.14
DDD 49 -7.07 -24.41 2.87
DDD 50 -6.30 -24.45 0.11
DDD 51 -8.54 -25.61 1.45
DDD 52 -7.22 -26.40 0.92
DDD 53 -7.91 -25.97 -1.33
DDD 54 -9.35 -27.61 0.44
DDD 55 -10.12 -27.32 -0.97
DDD 56 -8.64 -28.02 -0.97
DDD 57 -10.38 -25.37 -1.42
DDD 58 -10.03 -24.61 -0.01
DDD 59 -9.25 -24.18 -1.38
DDD 60 -10.70 -23.43 -2.30
DDD 61 -7.67 -23.71 -1.65
DDD 62 -8.86 -21.19 -1.01
DDD 63 -8.45 -22.42 -3.58
DDD 64 -10.23 -20.67 -3.35
DDD 65 -8.99 -19.63 -3.20
DDD 66 -9.16 -20.50 -4.57
DDD 67 -6.92 -20.37 -2.25
DDD 68 -6.38 -21.87 -2.61
DDD 69 -6.68 -20.81 -3.81
DDD 70 -13.44 -19.76 -1.69
DDD 71 -10.95 -20.83 -0.53
DDD 72 -12.84 -22.86 -1.34
DDD 73 -13.42 -20.88 0.64
DDD 74 -12.61 -22.27 2.33
DDD 75 -11.39 -21.98 1.30
DDD 76 -15.03 -22.37 1.36
DDD 77 -15.15 -22.37 -0.27
DDD 78 -14.38 -23.59 0.49
DDD 79 -12.41 -24.22 0.35
DDD 80 -11.07 -24.13 1.28
DDD 81 -12.52 -24.42 1.97
DDD 82 -16.87 -21.64 -3.11
DDD 83 -13.41 -20.85 -7.31
DDD 84 -14.04 -22.51 -3.12
DDD 85 -14.46 -19.79 -3.95
DDD 86 -15.61 -21.37 -5.73
DDD 87 -14.28 -22.19 -5.28
DDD 88 -14.34 -18.48 -5.90
DDD 89 -12.73 -18.93 -5.44
DDD 90 -18.69 -21.12 -4.75
DDD 91 -16.37 -18.66 -4.02
DDD 92 -18.56 -18.34 -3.58
DDD 93 -18.39 -19.38 -2.34
DDD 94 -22.17 -21.43 -6.67
DDD 95 -20.84 -19.40 -3.21
DDD 96 -21.11 -21.95 -4.44
DDD 97 -23.43 -21.59 -4.11
DDD 98 -23.10 -20.10 -3.54
DDD 99 -21.79 -21.20 -1.79
DDD 100 -22.49 -22.60 -2.28
DDD 101 -24.61 -21.77 -1.73
DDD 102 -23.98 -20.31 -1.37
DDD 103 -22.76 -21.34 0.42
DDD 104 -23.53 -22.74 0.10
DDD 105 -25.41 -22.07 1.01
DDD 106 -24.39 -21.14 1.88
DDD 107 -25.17 -20.51 0.59
DDD 108 -19.43 -18.96 -7.76
DDD 109 -21.22 -18.68 -5.46
DDD 110 -22.35 -19.44 -8.02
DDD 111 -22.17 -16.80 -8.03
DDD 112 -23.49 -17.16 -5.66
DDD 113 -24.59 -17.94 -7.08
DDD 114 -24.39 -16.86 -8.29
DDD 115 -24.06 -18.44 -8.54
DDD 116 -19.41 -15.30 -9.71
DDD 117 -21.47 -17.61 -9.75
DDD 118 -18.74 -18.37 -10.12
DDD 119 -19.95 -16.59 -11.92
DDD 120 -20.62 -18.08 -11.83
DDD 121 -17.88 -17.58 -12.57
DDD 122 -18.54 -19.77 -11.49
DDD 123 -19.19 -20.10 -12.95
DDD 124 -17.59 -19.81 -12.82
DDD 125 -18.48 -18.13 -14.76
DDD 126 -20.01 -18.47 -14.29
DDD 127 -19.47 -16.93 -14.26
DDD 128 -15.00 -15.92 -10.63
DDD 129 -16.94 -17.27 -9.59
DDD 130 -17.27 -14.42 -9.11
DDD 131 -16.97 -15.69 -7.09
DDD 132 -15.87 -14.50 -7.32
DDD 133 -15.10 -17.05 -8.24
DDD 134 -15.19 -16.89 -6.62
DDD 135 -13.57 -15.28 -6.58
DDD 136 -13.69 -15.02 -8.19
DDD 137 -12.68 -17.46 -7.06
DDD 138 -11.72 -16.24 -7.58
DDD 139 -12.17 -16.63 -9.72
DDD 140 -12.17 -18.15 -9.12
DDD 141 -13.58 -17.38 -9.38
DDD 142 -12.74 -12.80 -8.95
DDD 143 -15.49 -12.99 -9.55
DDD 144 -14.14 -12.55 -11.43
DDD 145 -13.76 -14.13 -11.56
DDD 146 -8.99 -11.45 -11.35
DDD 147 -7.54 -16.39 -11.04
DDD 148 -9.17 -17.34 -12.16
DDD 149 -11.51 -13.57 -11.75
DDD 150 -10.32 -13.23 -9.15
DDD 151 -8.42 -14.11 -10.00
DDD 152 -8.89 -13.83 -11.54
DDD 153 -10.57 -15.52 -11.27
DDD 154 -9.95 -15.85 -9.80
DDD 155 -8.28 -9.85 -7.70
DDD 156 -10.66 -11.00 -8.71
DDD 157 -9.14 -9.24 -10.46
DDD 158 -10.57 -7.51 -9.39
DDD 159 -12.55 -8.18 -8.59
DDD 160 -10.72 -8.26 -11.71
DDD 161 -11.92 -9.26 -11.24
DDD 162 -12.11 -7.64 -11.11
DDD 163 -9.15 -5.35 -7.18
DDD 164 -8.87 -7.01 -8.95
DDD 165 -7.54 -7.86 -6.52
DDD 166 -5.62 -6.62 -7.01
DDD 167 -5.33 -5.48 -8.86
DDD 168 -6.02 -8.36 -9.26
DDD 169 -4.62 -8.09 -8.47
DDD 170 -5.80 -8.96 -7.76
DDD 171 -5.88 -3.20 -4.60
DDD 172 -6.79 -5.92 -5.17
DDD 173 -8.90 -3.93 -5.26
DDD 174 -9.00 -5.12 -3.27
DDD 175 -8.83 -3.44 -1.78
DDD 176 -7.22 -5.96 -2.32
DDD 177 -6.30 -5.24 -3.47
DDD 178 -6.62 -4.46 -2.07
DDD 179 -8.25 0.73 -5.41
DDD 180 -8.38 -1.99 -6.10
DDD 181 -5.66 -1.08 -5.68
DDD 182 -6.07 -1.37 -7.94
DDD 183 -5.93 0.23 -7.62
DDD 184 -8.46 0.09 -7.49
DDD 185 -8.23 -1.21 -8.45
DDD 186 -7.35 1.46 -9.06
DDD 187 -8.61 0.71 -9.77
DDD 188 -7.17 -0.87 -10.73
DDD 189 -5.89 -0.20 -9.96
DDD 190 -6.05 0.44 -12.26
DDD 191 -7.45 1.21 -11.90
DDD 192 -6.04 1.71 -11.24
DDD 193 -4.45 3.22 -4.02
DDD 194 -5.28 0.61 -4.37
DDD 195 -7.51 2.40 -3.87
DDD 196 -5.81 1.12 -2.05
DDD 197 -6.09 2.70 -1.74
DDD 198 -7.34 1.65 -1.83
DDD 199 -6.84 7.57 -4.22
DDD 200 -7.31 4.47 -4.48
DDD 201 -4.60 5.47 -4.79
DDD 202 -5.49 5.34 -6.91
DDD 203 -7.65 5.40 -7.24
DDD 204 -7.88 5.82 -5.68
DDD 205 -7.68 6.98 -6.81
DDD 206 -4.33 7.33 -6.66
DDD 207 -5.67 7.68 -7.53
DDD 208 -5.61 8.05 -5.94
DDD 209 -3.34 9.10 -1.29
DDD 210 -5.82 5.36 -1.46
DDD 211 -5.51 5.39 0.72
DDD 212 -4.43 6.29 -2.65
DDD 213 -6.28 8.42 -2.02
DDD 214 -6.09 7.91 0.08
DDD 215 -4.48 7.68 -0.03
DDD 216 -2.40 12.46 -1.67
DDD 217 -5.38 9.97 -3.53
DDD 218 -2.72 10.74 -3.42
DDD 219 -3.27 12.12 -4.99
DDD 220 -4.74 11.40 -4.94
DDD 221 -4.47 12.78 -4.11
DDD 222 -3.25 13.19 1.78
DDD 223 -6.12 16.06 -2.18
DDD 224 -5.30 16.09 -0.14
DDD 225 -5.50 11.88 -1.64
DDD 226 -4.23 14.00 -0.36
DDD 227 -6.08 13.84 1.18
DDD 228 -6.60 12.56 0.31
DDD 229 -7.69 14.65 -0.24
DDD 230 -7.05 13.86 -1.52
DDD 231 -1.09 10.47 2.95
DDD 232 -4.56 10.64 0.46
DDD 233 -3.54 10.85 3.06
DDD 234 -3.43 8.43 1.54
DDD 235 -5.63 8.03 2.07
DDD 236 -2.65 7.96 3.60
DDD 237 -3.61 9.07 4.31
DDD 238 -4.24 7.65 3.81
DDD 239 1.72 11.74 1.20
DDD 240 -2.06 10.26 -0.04
DDD 241 0.48 9.62 0.97
DDD 242 1.15 10.04 -1.34
DDD 243 0.05 8.85 -1.12
DDD 244 -0.43 10.32 -1.65
DDD 245 1.49 14.95 2.20
DDD 246 1.77 17.51 -2.32
DDD 247 1.86 15.31 -2.25
DDD 248 -0.88 12.56 -0.39
DDD 249 1.43 14.10 -0.10
DDD 250 -1.23 15.14 -0.21
DDD 251 -0.44 14.61 -1.54
DDD 252 0.71 16.67 0.07
DDD 253 -0.41 17.04 -1.07
DDD 254 0.60 14.56 5.56
DDD 255 -1.51 14.05 1.83
DDD 256 -0.63 15.78 3.80
DDD 257 -2.37 14.81 5.13
DDD 258 -2.62 13.73 3.92
DDD 259 -3.42 15.35 2.52
DDD 260 -2.88 16.55 3.48
DDD 261 -4.47 15.84 5.15
DDD 262 -5.08 14.79 4.06
DDD 263 -5.34 16.85 2.64
DDD 264 -5.28 17.63 4.07
DDD 265 -7.32 15.96 3.07
DDD 266 -7.06 15.95 4.68
DDD 267 -7.46 17.34 3.93
DDD 268 3.10 12.30 6.14
DDD 269 -0.33 12.31 3.55
DDD 270 0.68 11.83 6.08
DDD 271 -0.02 10.01 4.92
DDD 272 0.94 10.37 3.64
DDD 273 1.60 9.83 5.04
DDD 274 5.65 14.60 4.91
DDD 275 2.37 12.52 3.08
DDD 276 4.94 12.34 4.15
DDD 277 4.09 13.73 1.80
DDD 278 4.53 12.16 1.85
DDD 279 6.69 11.66 1.15
DDD 280 5.94 15.38 2.75
DDD 281 8.94 12.29 0.74
DDD 282 8.20 16.01 2.33
DDD 283 9.70 14.47 1.33
DDD 284 4.95 17.14 6.81
DDD 285 2.69 14.98 3.88
DDD 286 4.36 17.08 4.43
DDD 287 1.73 17.10 5.48
DDD 288 1.92 17.02 3.86
DDD 289 1.78 19.22 4.07
DDD 290 3.40 19.05 4.27
DDD 291 2.98 18.94 6.67
DDD 292 1.45 19.41 6.35
DDD 293 2.63 21.30 5.13
DDD 294 3.84 20.94 6.17
DDD 295 2.52 22.65 7.06
DDD 296 1.19 21.71 6.92
DDD 297 2.37 21.30 7.98
DDD 298 5.49 15.19 9.77
DDD 299 0.56 17.10 11.05
DDD 300 2.47 15.20 6.73
DDD 301 3.51 16.45 9.00
DDD 302 2.52 13.83 9.23
DDD 303 1.48 14.95 8.67
DDD 304 2.81 15.03 11.21
DDD 305 1.22 14.72 10.98
DDD 306 3.17 17.99 11.28
DDD 307 2.99 17.73 9.58
DDD 308 8.34 13.79 9.10
DDD 309 4.43 13.55 7.29
DDD 310 6.24 12.51 9.04
DDD 311 7.32 11.60 7.09
DDD 312 6.27 12.46 6.18
DDD 313 4.67 11.07 5.22
DDD 314 5.84 10.34 9.10
DDD 315 3.09 9.30 5.35
DDD 316 4.25 8.56 9.25
DDD 317 2.46 7.55 8.34
DDD 318 9.95 16.93 8.76
DDD 319 6.91 14.85 6.50
DDD 320 9.59 15.19 7.02
DDD 321 8.79 16.00 5.04
DDD 322 7.71 16.96 5.80
DDD 323 9.30 17.30 5.89
DDD 324 8.89 17.69 12.10
DDD 325 6.46 20.23 8.91
DDD 326 6.82 16.68 8.49
DDD 327 8.21 18.64 9.92
DDD 328 6.19 18.75 11.22
DDD 329 5.60 17.52 10.32
DDD 330 4.24 18.20 8.48
DDD 331 3.87 19.87 8.75
DDD 332 10.42 14.76 13.51
DDD 333 5.90 14.81 13.97
DDD 334 5.25 12.96 12.98
DDD 335 7.23 15.39 10.73
DDD 336 8.06 15.49 13.40
DDD 337 8.02 13.02 13.11
DDD 338 7.37 13.35 11.65
DDD 339 13.58 15.30 11.98
DDD 340 10.31 11.96 9.84
DDD 341 9.65 14.47 10.47
DDD 342 11.95 13.46 11.68
DDD 343 12.78 13.20 9.62
DDD 344 12.00 14.52 9.04
DDD 345 10.28 13.96 7.53
DDD 346 10.27 12.25 7.25
DDD 347 14.50 18.98 10.00
DDD 348 11.17 16.64 10.43
DDD 349 13.47 17.66 11.85
DDD 350 12.14 18.52 11.47
DDD 351 11.83 20.21 7.21
DDD 352 12.03 17.49 8.72
DDD 353 14.43 18.41 7.51
DDD 354 13.35 17.85 5.47
DDD 355 14.39 15.99 6.14
DDD 356 13.60 15.95 7.57
DDD 357 12.86 15.44 6.21
DDD 358 11.15 18.13 5.58
DDD 359 11.18 16.54 5.97
DDD 360 11.08 17.67 7.15
DDD 361 14.33 22.12 4.15
DDD 362 15.16 24.46 8.69
DDD 363 14.89 22.32 9.12
DDD 364 14.95 20.40 6.76
DDD 365 12.96 22.44 6.99
DDD 366 14.88 23.85 6.34
DDD 367 15.78 22.51 6.57
DDD 368 10.48 20.76 3.45
DDD 369 11.48 22.68 5.38
DDD 370 12.58 22.96 2.73
DDD 371 11.12 23.50 3.23
DDD 372 12.90 19.27 0.25
DDD 373 11.84 21.93 0.86
DDD 374 9.95 19.79 1.26
DDD 375 9.95 19.69 -1.16
DDD 376 8.38 21.28 -1.32
DDD 377 8.49 21.20 0.31
DDD 378 9.28 22.38 -0.51
DDD 379 10.85 21.74 -2.21
DDD 380 11.72 21.93 -0.85
DDD 381 11.95 20.61 -1.78
DDD 382 10.37 15.57 -0.31
DDD 383 10.37 17.63 1.18
DDD 384 13.06 16.89 0.41
DDD 385 12.79 16.85 2.79
DDD 386 13.25 15.42 2.14
DDD 387 9.82 16.95 2.97
DDD 388 8.31 15.21 4.10
DDD 389 13.09 13.16 2.91
DDD 390 10.23 10.79 4.75
DDD 391 8.67 12.59 4.78
DDD 392 12.40 11.06 3.83
DDD 393 12.77 11.97 0.42
DDD 394 13.35 14.56 -0.17
DDD 395 10.98 13.62 -1.55
DDD 396 12.77 12.34 -2.80
DDD 397 14.74 13.39 -2.95
DDD 398 11.24 14.27 -3.51
DDD 399 12.67 15.06 -3.62
DDD 400 12.40 13.72 -4.52
DDD 401 9.63 8.12 -0.96
DDD 402 10.35 11.43 -1.53
DDD 403 11.77 9.75 0.34
DDD 404 10.04 10.73 1.59
DDD 405 9.84 9.11 1.44
DDD 406 8.99 11.52 -1.08
DDD 407 7.48 8.93 1.74
DDD 408 6.80 11.87 -1.95
DDD 409 5.28 9.27 0.89
DDD 410 4.11 9.93 -1.12
DDD 411 11.71 5.32 -3.36
DDD 412 10.50 9.46 -5.41
DDD 413 11.19 7.73 -6.58
DDD 414 12.28 9.30 -2.20
DDD 415 10.36 7.59 -3.40
DDD 416 12.65 7.24 -4.69
DDD 417 12.72 8.79 -4.19
DDD 418 11.95 2.78 -0.71
DDD 419 14.59 3.40 1.09
DDD 420 12.77 3.63 2.30
DDD 421 12.30 7.11 -0.83
DDD 422 13.51 4.69 -1.28
DDD 423 12.48 5.77 1.16
DDD 424 14.02 5.87 0.63
DDD 425 8.92 1.29 -1.68
DDD 426 10.19 5.39 -0.86
DDD 427 9.16 3.07 0.07
DDD 428 7.85 4.98 -0.43
DDD 429 7.99 4.65 -2.02
DDD 430 7.18 3.62 -1.03
DDD 431 11.95 -0.02 -4.42
DDD 432 10.55 3.63 -3.03
DDD 433 9.56 1.28 -4.24
DDD 434 11.56 1.89 -5.74
DDD 435 11.61 4.28 -5.74
DDD 436 10.06 3.23 -7.02
DDD 437 9.32 1.87 -6.49
DDD 438 9.05 3.30 -5.74
DDD 439 12.85 -2.66 -1.96
DDD 440 11.27 1.28 -1.63
DDD 441 13.51 -0.29 -2.30
DDD 442 12.28 0.12 0.26
DDD 443 13.49 1.03 -0.36
DDD 444 14.97 -0.78 -0.21
DDD 445 13.76 -1.76 0.30
DDD 446 13.59 -0.61 2.31
DDD 447 14.62 0.55 1.79
DDD 448 15.58 -1.10 3.32
DDD 449 16.42 -0.86 1.94
DDD 450 14.83 -3.10 2.65
DDD 451 15.13 -2.78 1.07
DDD 452 16.37 -3.09 2.09
DDD 453 8.37 -2.00 -2.55
DDD 454 10.26 -1.01 -1.28
DDD 455 10.74 -3.81 -1.83
DDD 456 9.20 -2.95 0.44
DDD 457 10.95 -3.78 1.72
DDD 458 10.17 -5.61 0.15
DDD 459 8.80 -5.10 0.89
DDD 460 8.88 -5.19 -0.74
DDD 461 6.51 -6.28 -1.81
DDD 462 8.67 -5.10 -2.09
DDD 463 6.54 -3.46 -3.17
DDD 464 7.20 -5.78 -4.63
DDD 465 8.14 -4.47 -4.86
DDD 466 7.59 -3.11 -6.65
DDD 467 4.59 -5.20 -4.74
DDD 468 6.00 -2.24 -8.18
DDD 469 3.01 -4.32 -6.28
DDD 470 3.70 -2.84 -8.00
DDD 471 2.35 -6.45 -3.91
DDD 472 4.43 -4.35 -3.16
DDD 473 4.16 -6.56 -1.31
DDD 474 1.88 -5.77 -1.10
DDD 475 2.93 -3.89 -2.86
DDD 476 4.02 -4.95 0.20
DDD 477 3.35 -3.53 -0.26
DDD 478 2.50 -4.59 0.65
DDD 479 1.76 -10.14 -2.10
DDD 480 4.10 -8.52 -2.29
DDD 481 2.61 -8.72 -4.75
DDD 482 3.66 -10.89 -4.92
DDD 483 4.65 -8.61 -5.66
DDD 484 5.84 -9.11 -4.66
DDD 485 5.42 -10.02 -5.95
DDD 486 5.03 -11.68 -3.37
DDD 487 5.60 -10.20 -2.99
DDD 488 4.17 -10.70 -2.39
DDD 489 -0.60 -12.30 -5.82
DDD 490 0.98 -10.31 -5.15
DDD 491 -0.08 -11.56 -2.77
DDD 492 -2.27 -10.91 -3.28
DDD 493 -2.49 -9.17 -4.95
DDD 494 -0.85 -8.42 -3.34
DDD 495 -2.17 -8.81 -2.45
DDD 496 -0.70 -9.38 -2.03
DDD 497 -2.92 -15.34 -5.57
DDD 498 2.19 -17.60 -3.41
DDD 499 3.52 -17.26 -5.13
DDD 500 -0.45 -13.69 -2.99
DDD 501 -0.60 -14.72 -5.69
DDD 502 -0.25 -16.84 -4.35
DDD 503 0.41 -15.79 -3.29
DDD 504 1.93 -15.09 -4.98
DDD 505 1.30 -16.22 -5.98
DDD 506 -2.55 -15.73 -3.44
END

EOF
